c Total graph ordering principle
c  on graph .
c
c Generated with `cnfgen`
c (C) 20122016 Massimo Lauria <lauria.massimo@gmail.com>
c https://massimolauria.github.io/cnfgen
c
c COMMAND LINE: cnfgen op -t 6
c
p cnf 30 76
6 11 16 21 26 0
1 12 17 22 27 0
2 7 18 23 28 0
3 8 13 24 29 0
4 9 14 19 30 0
5 10 15 20 25 0
-1 -7 -11 0
2 -12 -6 0
-1 -8 -16 0
-3 -17 -6 0
-1 -9 21 0
-4 22 -6 0
-1 -10 26 0
-5 27 -6 0
2 -13 -16 0
-3 -18 -11 0
2 -14 21 0
-4 23 -11 0
2 -15 26 0
-5 28 -11 0
-3 -19 21 0
-4 24 -16 0
-3 20 26 0
-5 29 -16 0
-4 25 26 0
-5 -30 21 0
-7 -13 -17 0
-8 -18 -12 0
-7 -14 22 0
-9 23 -12 0
-7 -15 27 0
-10 28 -12 0
-8 -19 22 0
-9 24 -17 0
-8 20 27 0
-10 29 -17 0
-9 25 27 0
-10 -30 22 0
-13 -19 23 0
-14 24 -18 0
-13 20 28 0
-15 29 -18 0
-14 25 28 0
-15 -30 23 0
-19 25 29 0
20 -30 24 0
-1 -6 0
2 -11 0
-3 -16 0
-4 21 0
-5 26 0
-7 -12 0
-8 -17 0
-9 22 0
-10 27 0
-13 -18 0
-14 23 0
-15 28 0
-19 24 0
20 29 0
25 -30 0
1 6 0
2 11 0
3 16 0
4 21 0
5 26 0
7 12 0
8 17 0
9 22 0
10 27 0
13 18 0
14 23 0
15 28 0
19 24 0
20 29 0
25 30 0
